results_rootrelaxation/bin012_090_019.srr.sol
solution status: optimal solution found
objective value:                                   32
_var714_                                            1 	(obj:2)
_var740_                                          0.5 	(obj:3)
_var764_                                          0.5 	(obj:3)
_var818_                                          0.5 	(obj:3)
_var827_                                          0.5 	(obj:3)
_var847_                                          0.5 	(obj:1)
_var877_                                            1 	(obj:3)
_var884_                                          0.5 	(obj:3)
_var885_                                          0.5 	(obj:4)
_var886_                                          0.5 	(obj:4)
_var887_                                            1 	(obj:3)
_var892_                                          0.5 	(obj:3)
_var905_                                          0.5 	(obj:3)
_var922_                                            1 	(obj:3)
_var924_                                          0.5 	(obj:2)
_var930_                                          0.5 	(obj:4)
_var956_                                          0.5 	(obj:3)
_var957_                                          0.5 	(obj:3)
