results_rootrelaxation/bin012_090_019.srr.log
SCIP version 8.0.3.5 [precision: 8 byte] [memory: block] [mode: optimized] [LP solver: Soplex 6.0.1.3] [GitHash: 438792519e]
Copyright (c) 2002-2023 Zuse Institute Berlin (ZIB)

External libraries: 
  Readline 8.1         GNU library for command line editing (gnu.org/s/readline)
  Soplex 6.0.1.3       Linear Programming Solver developed at Zuse Institute Berlin (soplex.zib.de) [GitHash: 713be0fe]
  CppAD 20180000.0     Algorithmic Differentiation of C++ algorithms developed by B. Bell (github.com/coin-or/CppAD)
  ZLIB 1.2.11          General purpose compression library by J. Gailly and M. Adler (zlib.net)
  bliss 0.77           Computing Graph Automorphism Groups by T. Junttila and P. Kaski (www.tcs.hut.fi/Software/bliss/)

user parameter file <scip.set> not found - using default parameters

srr/relaxation = TRUE

read problem <instances/bin012_090_019.srr>
============

Original problem: 
original problem has 0 variables (0 bin, 0 int, 0 impl, 0 cont) and 77 constraints

presolving:
presolving (1 rounds: 1 fast, 1 medium, 1 exhaustive):
 0 deleted vars, 0 deleted constraints, 0 added constraints, 0 tightened bounds, 0 added holes, 0 changed sides, 0 changed coefficients
 0 implications, 0 cliques
presolved problem has 0 variables (0 bin, 0 int, 0 impl, 0 cont) and 77 constraints
     77 constraints of type <linear>
Presolving Time: 0.00

 time | node  | left  |LP iter|LP it/n|mem/heur|mdpt |vars |cons |rows |cuts |sepa|confs|strbr|  dualbound   | primalbound  |  gap   | compl. 
  0.0s|     1 |     0 |     1 |     - |   710k |   0 |   1 |  77 |  77 |   0 |  0 |   0 |   0 |      --      |      --      |    Inf | unknown
r 0.1s|     1 |     0 |  1108 |     - |simplero|   0 | 710 |  77 |  77 |   0 |  0 |   0 |   0 |      --      | 4.605219e+01 |    Inf | unknown
r 0.1s|     1 |     0 |  1147 |     - |simplero|   0 | 721 |  77 |  77 |   0 |  0 |   0 |   0 |      --      | 4.398771e+01 |    Inf | unknown
r 0.1s|     1 |     0 |  1198 |     - |simplero|   0 | 732 |  77 |  77 |   0 |  0 |   0 |   0 |      --      | 4.260987e+01 |    Inf | unknown
r 0.1s|     1 |     0 |  1263 |     - |simplero|   0 | 743 |  77 |  77 |   0 |  0 |   0 |   0 |      --      | 4.151858e+01 |    Inf | unknown
r 0.1s|     1 |     0 |  1320 |     - |simplero|   0 | 754 |  77 |  77 |   0 |  0 |   0 |   0 |      --      | 4.021517e+01 |    Inf | unknown
r 0.1s|     1 |     0 |  1366 |     - |simplero|   0 | 765 |  77 |  77 |   0 |  0 |   0 |   0 |      --      | 3.928891e+01 |    Inf | unknown
r 0.1s|     1 |     0 |  1400 |     - |simplero|   0 | 776 |  77 |  77 |   0 |  0 |   0 |   0 |      --      | 3.812861e+01 |    Inf | unknown
r 0.1s|     1 |     0 |  1413 |     - |simplero|   0 | 776 |  77 |  77 |   0 |  0 |   0 |   0 |      --      | 3.800889e+01 |    Inf | unknown
r 0.1s|     1 |     0 |  1421 |     - |simplero|   0 | 776 |  77 |  77 |   0 |  0 |   0 |   0 |      --      | 3.799415e+01 |    Inf | unknown
r 0.1s|     1 |     0 |  1457 |     - |simplero|   0 | 787 |  77 |  77 |   0 |  0 |   0 |   0 |      --      | 3.743711e+01 |    Inf | unknown
r 0.1s|     1 |     0 |  1462 |     - |simplero|   0 | 787 |  77 |  77 |   0 |  0 |   0 |   0 |      --      | 3.743267e+01 |    Inf | unknown
r 0.1s|     1 |     0 |  1463 |     - |simplero|   0 | 787 |  77 |  77 |   0 |  0 |   0 |   0 |      --      | 3.743174e+01 |    Inf | unknown
r 0.1s|     1 |     0 |  1486 |     - |simplero|   0 | 798 |  77 |  77 |   0 |  0 |   0 |   0 |      --      | 3.694480e+01 |    Inf | unknown
r 0.1s|     1 |     0 |  1509 |     - |simplero|   0 | 798 |  77 |  77 |   0 |  0 |   0 |   0 |      --      | 3.682134e+01 |    Inf | unknown
 time | node  | left  |LP iter|LP it/n|mem/heur|mdpt |vars |cons |rows |cuts |sepa|confs|strbr|  dualbound   | primalbound  |  gap   | compl. 
r 0.1s|     1 |     0 |  1513 |     - |simplero|   0 | 798 |  77 |  77 |   0 |  0 |   0 |   0 |      --      | 3.681831e+01 |    Inf | unknown
r 0.1s|     1 |     0 |  1550 |     - |simplero|   0 | 809 |  77 |  77 |   0 |  0 |   0 |   0 |      --      | 3.626061e+01 |    Inf | unknown
r 0.1s|     1 |     0 |  1566 |     - |simplero|   0 | 809 |  77 |  77 |   0 |  0 |   0 |   0 |      --      | 3.617877e+01 |    Inf | unknown
r 0.1s|     1 |     0 |  1615 |     - |simplero|   0 | 820 |  77 |  77 |   0 |  0 |   0 |   0 |      --      | 3.580183e+01 |    Inf | unknown
r 0.1s|     1 |     0 |  1618 |     - |simplero|   0 | 820 |  77 |  77 |   0 |  0 |   0 |   0 |      --      | 3.579796e+01 |    Inf | unknown
r 0.1s|     1 |     0 |  1622 |     - |simplero|   0 | 820 |  77 |  77 |   0 |  0 |   0 |   0 |      --      | 3.579556e+01 |    Inf | unknown
r 0.1s|     1 |     0 |  1671 |     - |simplero|   0 | 831 |  77 |  77 |   0 |  0 |   0 |   0 |      --      | 3.508067e+01 |    Inf | unknown
r 0.1s|     1 |     0 |  1693 |     - |simplero|   0 | 831 |  77 |  77 |   0 |  0 |   0 |   0 |      --      | 3.505485e+01 |    Inf | unknown
r 0.1s|     1 |     0 |  1697 |     - |simplero|   0 | 831 |  77 |  77 |   0 |  0 |   0 |   0 |      --      | 3.505484e+01 |    Inf | unknown
r 0.1s|     1 |     0 |  1699 |     - |simplero|   0 | 831 |  77 |  77 |   0 |  0 |   0 |   0 |      --      | 3.505484e+01 |    Inf | unknown
r 0.1s|     1 |     0 |  1724 |     - |simplero|   0 | 842 |  77 |  77 |   0 |  0 |   0 |   0 |      --      | 3.486977e+01 |    Inf | unknown
r 0.1s|     1 |     0 |  1749 |     - |simplero|   0 | 842 |  77 |  77 |   0 |  0 |   0 |   0 |      --      | 3.475811e+01 |    Inf | unknown
r 0.1s|     1 |     0 |  1756 |     - |simplero|   0 | 842 |  77 |  77 |   0 |  0 |   0 |   0 |      --      | 3.473312e+01 |    Inf | unknown
r 0.1s|     1 |     0 |  1762 |     - |simplero|   0 | 842 |  77 |  77 |   0 |  0 |   0 |   0 |      --      | 3.473113e+01 |    Inf | unknown
r 0.1s|     1 |     0 |  1797 |     - |simplero|   0 | 853 |  77 |  77 |   0 |  0 |   0 |   0 |      --      | 3.435179e+01 |    Inf | unknown
 time | node  | left  |LP iter|LP it/n|mem/heur|mdpt |vars |cons |rows |cuts |sepa|confs|strbr|  dualbound   | primalbound  |  gap   | compl. 
r 0.1s|     1 |     0 |  1820 |     - |simplero|   0 | 853 |  77 |  77 |   0 |  0 |   0 |   0 |      --      | 3.422951e+01 |    Inf | unknown
  0.1s|     1 |     0 |  1823 |     - |  4187k |   0 | 853 |  77 |  77 |   0 |  0 |   0 |   0 |      --      | 3.422951e+01 |    Inf | unknown
r 0.1s|     1 |     0 |  1823 |     - |simplero|   0 | 853 |  77 |  77 |   0 |  0 |   0 |   0 |      --      | 3.422566e+01 |    Inf | unknown
r 0.1s|     1 |     0 |  1866 |     - |simplero|   0 | 864 |  77 |  77 |   0 |  0 |   0 |   0 |      --      | 3.390722e+01 |    Inf | unknown
r 0.1s|     1 |     0 |  1885 |     - |simplero|   0 | 864 |  77 |  77 |   0 |  0 |   0 |   0 |      --      | 3.388268e+01 |    Inf | unknown
r 0.1s|     1 |     0 |  1890 |     - |simplero|   0 | 864 |  77 |  77 |   0 |  0 |   0 |   0 |      --      | 3.387186e+01 |    Inf | unknown
r 0.1s|     1 |     0 |  1924 |     - |simplero|   0 | 875 |  77 |  77 |   0 |  0 |   0 |   0 |      --      | 3.361932e+01 |    Inf | unknown
r 0.1s|     1 |     0 |  1926 |     - |simplero|   0 | 875 |  77 |  77 |   0 |  0 |   0 |   0 |      --      | 3.361293e+01 |    Inf | unknown
r 0.1s|     1 |     0 |  1980 |     - |simplero|   0 | 886 |  77 |  77 |   0 |  0 |   0 |   0 |      --      | 3.326394e+01 |    Inf | unknown
r 0.1s|     1 |     0 |  2011 |     - |simplero|   0 | 886 |  77 |  77 |   0 |  0 |   0 |   0 |      --      | 3.320000e+01 |    Inf | unknown
r 0.1s|     1 |     0 |  2045 |     - |simplero|   0 | 897 |  77 |  77 |   0 |  0 |   0 |   0 |      --      | 3.295455e+01 |    Inf | unknown
r 0.1s|     1 |     0 |  2052 |     - |simplero|   0 | 897 |  77 |  77 |   0 |  0 |   0 |   0 |      --      | 3.295238e+01 |    Inf | unknown
r 0.1s|     1 |     0 |  2093 |     - |simplero|   0 | 908 |  77 |  77 |   0 |  0 |   0 |   0 |      --      | 3.276517e+01 |    Inf | unknown
r 0.1s|     1 |     0 |  2102 |     - |simplero|   0 | 919 |  77 |  77 |   0 |  0 |   0 |   0 |      --      | 3.276382e+01 |    Inf | unknown
r 0.1s|     1 |     0 |  2126 |     - |simplero|   0 | 930 |  77 |  77 |   0 |  0 |   0 |   0 |      --      | 3.252066e+01 |    Inf | unknown
 time | node  | left  |LP iter|LP it/n|mem/heur|mdpt |vars |cons |rows |cuts |sepa|confs|strbr|  dualbound   | primalbound  |  gap   | compl. 
r 0.1s|     1 |     0 |  2157 |     - |simplero|   0 | 930 |  77 |  77 |   0 |  0 |   0 |   0 |      --      | 3.234951e+01 |    Inf | unknown
r 0.1s|     1 |     0 |  2170 |     - |simplero|   0 | 930 |  77 |  77 |   0 |  0 |   0 |   0 |      --      | 3.232500e+01 |    Inf | unknown
r 0.1s|     1 |     0 |  2221 |     - |simplero|   0 | 941 |  77 |  77 |   0 |  0 |   0 |   0 |      --      | 3.225000e+01 |    Inf | unknown
r 0.1s|     1 |     0 |  2259 |     - |simplero|   0 | 952 |  77 |  77 |   0 |  0 |   0 |   0 |      --      | 3.224242e+01 |    Inf | unknown
r 0.1s|     1 |     0 |  2292 |     - |simplero|   0 | 960 |  77 |  77 |   0 |  0 |   0 |   0 |      --      | 3.200000e+01 |    Inf | unknown
  0.1s|     1 |     0 |  2409 |     - |  5324k |   0 | 993 |  77 |  77 |   0 |  0 |   0 |   0 | 3.200000e+01 | 3.200000e+01 |   0.00%| unknown
  0.1s|     1 |     0 |  2409 |     - |  5324k |   0 | 993 |  77 |  77 |   0 |  0 |   0 |   0 | 3.200000e+01 | 3.200000e+01 |   0.00%| unknown

SCIP Status        : problem is solved [optimal solution found]
Solving Time (sec) : 0.12
Solving Nodes      : 1
Primal Bound       : +3.20000000000000e+01 (48 solutions)
Dual Bound         : +3.20000000000000e+01
Gap                : 0.00 %

written transformed problem to file <results_rootrelaxation/bin012_090_019.srr.lp>
written transformed problem to file <results_rootrelaxation/bin012_090_019.srr.cip>

written solution information to file <results_rootrelaxation/bin012_090_019.srr.sol>



